NAME: concorde91
TYPE: TSP
DIMENSION: 50 
EDGE_WEIGHT_TYPE: EUC_2D
NODE_COORD_SECTION
1 44 57
2 42 44
3 59 60
4 83 96
5 80 27
6 32 66
7 96 7
8 65 7
9 46 37
10 61 30
11 29 55
12 72 37
13 93 85
14 68 62
15 18 40
16 35 30
17 12 38
18 10 70
19 30 95
20 84 78
21 100 22
22 44 72
23 20 67
24 97 71
25 66 28
26 30 71
27 12 66
28 60 4
29 12 6
30 79 28
31 37 30
32 96 96
33 92 39
34 83 37
35 32 85
36 88 85
37 80 32
38 61 13
39 7 62
40 42 79
41 34 34
42 75 91
43 22 19
44 29 80
45 35 76
46 63 92
47 90 32
48 75 8
49 46 92
50 3 96
